
Log started (V11.0.0) Fri May 16 23:03:08 2008

Tried aggregator 1 time.
Reduced MIP has 250 rows, 10001 columns, and 20050 nonzeros.
Presolve time =    0.08 sec.
Clique table members: 200.
MIP emphasis: balance optimality and feasibility.
MIP search method: dynamic search.
Parallel mode: none, using 1 thread.
Root relaxation solution time =    0.47 sec.

        Nodes                                         Cuts/
   Node  Left     Objective  IInf  Best Integer     Best Node    ItCnt     Gap

*     0+    0                        22102.0000      400.3400      608   98.19%
*     0+    0                          402.0000      400.3400      608    0.41%
      0     0      401.0000    74      402.0000      Fract: 6      614    0.25%
      0     0      401.0000    67      402.0000     Covers: 1      618    0.25%
      0     2      401.0000    67      402.0000      401.0000      618    0.25%
    100   102      401.0000    22      402.0000      401.0000     7468    0.25%
    200   192      401.0000    13      402.0000      401.0000    14551    0.25%
    300   228      401.0000    73      402.0000      401.0000    47903    0.25%
    400   257    infeasible            402.0000      401.0000    52428    0.25%
    500   311      401.0000    62      402.0000      401.0000    82711    0.25%
    600   318      401.0000    79      402.0000      401.0000    96026    0.25%
    700   322      401.0000    72      402.0000      401.0000   104237    0.25%
    800   317      401.0000    72      402.0000      401.0000   116128    0.25%
    900   288    infeasible            402.0000      401.0000   130337    0.25%
   1000   266      401.0000    67      402.0000      401.0000   151204    0.25%
Elapsed time =  61.11 sec. (tree size =  1.80 MB, solutions = 2)
   1100   299    infeasible            402.0000      401.0000   168144    0.25%
   1200   247      401.0000    76      402.0000      401.0000   196249    0.25%
   1300   217    infeasible            402.0000      401.0000   228537    0.25%
   1400   117    infeasible            402.0000      401.0000   269773    0.25%
   1500    73      401.0000    68      402.0000      401.0000   297395    0.25%
   1600   135    infeasible            402.0000      401.0000   309549    0.25%
   1700   157      401.0000    97      402.0000      401.0000   331845    0.25%
   1800   231      401.0000    89      402.0000      401.0000   341761    0.25%
   1900   285      401.0000   110      402.0000      401.0000   356870    0.25%
   2000   345      401.0000   118      402.0000      401.0000   371704    0.25%
Elapsed time = 128.05 sec. (tree size =  2.70 MB, solutions = 2)
   2100   431    infeasible            402.0000      401.0000   379783    0.25%
   2200   507      401.0000   114      402.0000      401.0000   392201    0.25%
   2300   577      401.0000   123      402.0000      401.0000   412471    0.25%
   2400   641      401.0000   126      402.0000      401.0000   422410    0.25%
   2500   603      401.0000   120      402.0000      401.0000   452229    0.25%
   2600   619    infeasible            402.0000      401.0000   474195    0.25%
   2700   675      401.0000   120      402.0000      401.0000   487557    0.25%
   2800   611    infeasible            402.0000      401.0000   520944    0.25%
   2900   511    infeasible            402.0000      401.0000   565891    0.25%
   3000   411    infeasible            402.0000      401.0000   612613    0.25%
Elapsed time = 226.17 sec. (tree size =  3.36 MB, solutions = 2)
   3100   311    infeasible            402.0000      401.0000   656210    0.25%
   3200   211    infeasible            402.0000      401.0000   697674    0.25%
   3300   111    infeasible            402.0000      401.0000   736225    0.25%
   3400    11    infeasible            402.0000      401.0000   769366    0.25%

Cover cuts applied:  235
Gomory fractional cuts applied:  5

Solution pool: 2 solutions saved.

MIP - Integer optimal solution:  Objective = 4.0200000000e+002
Solution time =  294.16 sec.  Iterations = 774003  Nodes = 3412


Incumbent solution
Variable Name           Solution Value
Cmax                        402.000000
X_1_44                        1.000000
X_2_27                        1.000000
X_3_4                         1.000000
X_4_38                        1.000000
X_5_24                        1.000000
X_6_11                        1.000000
X_7_17                        1.000000
X_8_40                        1.000000
X_9_17                        1.000000
X_10_42                       1.000000
X_11_21                       1.000000
X_12_15                       1.000000
X_13_30                       1.000000
X_14_49                       1.000000
X_15_3                        1.000000
X_16_17                       1.000000
X_17_24                       1.000000
X_18_42                       1.000000
X_19_23                       1.000000
X_20_42                       1.000000
X_21_21                       1.000000
X_22_23                       1.000000
X_23_7                        1.000000
X_24_2                        1.000000
X_25_34                       1.000000
X_26_20                       1.000000
X_27_13                       1.000000
X_28_35                       1.000000
X_29_45                       1.000000
X_30_16                       1.000000
X_31_39                       1.000000
X_32_37                       1.000000
X_33_32                       1.000000
X_34_29                       1.000000
X_35_18                       1.000000
X_36_12                       1.000000
X_37_29                       1.000000
X_38_41                       1.000000
X_39_35                       1.000000
X_40_1                        1.000000
X_41_15                       1.000000
X_42_30                       1.000000
X_43_30                       1.000000
X_44_43                       1.000000
X_45_19                       1.000000
X_46_9                        1.000000
X_47_48                       1.000000
X_48_5                        1.000000
X_49_39                       1.000000
X_50_49                       1.000000
X_51_34                       1.000000
X_52_6                        1.000000
X_53_4                        1.000000
X_54_10                       1.000000
X_55_3                        1.000000
X_56_9                        1.000000
X_57_16                       1.000000
X_58_26                       1.000000
X_59_13                       1.000000
X_60_47                       1.000000
X_61_50                       1.000000
X_62_5                        1.000000
X_63_29                       1.000000
X_64_4                        1.000000
X_65_18                       1.000000
X_66_15                       1.000000
X_67_11                       1.000000
X_68_43                       1.000000
X_69_38                       1.000000
X_70_45                       1.000000
X_71_29                       1.000000
X_72_46                       1.000000
X_73_8                        1.000000
X_74_21                       1.000000
X_75_36                       1.000000
X_76_2                        1.000000
X_77_16                       1.000000
X_78_35                       1.000000
X_79_31                       1.000000
X_80_38                       1.000000
X_81_18                       1.000000
X_82_12                       1.000000
X_83_26                       1.000000
X_84_27                       1.000000
X_85_36                       1.000000
X_86_28                       1.000000
X_87_37                       1.000000
X_88_21                       1.000000
X_89_5                        1.000000
X_90_20                       1.000000
X_91_41                       1.000000
X_92_48                       1.000000
X_93_45                       1.000000
X_94_6                        1.000000
X_95_27                       1.000000
X_96_3                        1.000000
X_97_25                       1.000000
X_98_32                       1.000000
X_99_6                        1.000000
X_100_37                      1.000000
X_101_22                      1.000000
X_102_14                      1.000000
X_103_5                       1.000000
X_104_44                      1.000000
X_105_37                      1.000000
X_106_49                      1.000000
X_107_20                      1.000000
X_108_50                      1.000000
X_109_40                      1.000000
X_110_25                      1.000000
X_111_11                      1.000000
X_112_31                      1.000000
X_113_10                      1.000000
X_114_40                      1.000000
X_115_48                      1.000000
X_116_48                      1.000000
X_117_14                      1.000000
X_118_12                      1.000000
X_119_23                      1.000000
X_120_12                      1.000000
X_121_33                      1.000000
X_122_2                       1.000000
X_123_33                      1.000000
X_124_24                      1.000000
X_125_26                      1.000000
X_126_36                      1.000000
X_127_38                      1.000000
X_128_22                      1.000000
X_129_27                      1.000000
X_130_14                      1.000000
X_131_46                      1.000000
X_132_44                      1.000000
X_133_34                      1.000000
X_134_39                      1.000000
X_135_28                      1.000000
X_136_8                       1.000000
X_137_50                      1.000000
X_138_23                      1.000000
X_139_13                      1.000000
X_140_19                      1.000000
X_141_17                      1.000000
X_142_4                       1.000000
X_143_41                      1.000000
X_144_28                      1.000000
X_145_20                      1.000000
X_146_43                      1.000000
X_147_10                      1.000000
X_148_31                      1.000000
X_149_42                      1.000000
X_150_1                       1.000000
X_151_15                      1.000000
X_152_1                       1.000000
X_153_14                      1.000000
X_154_19                      1.000000
X_155_44                      1.000000
X_156_39                      1.000000
X_157_3                       1.000000
X_158_16                      1.000000
X_159_28                      1.000000
X_160_7                       1.000000
X_161_22                      1.000000
X_162_25                      1.000000
X_163_26                      1.000000
X_164_8                       1.000000
X_165_46                      1.000000
X_166_31                      1.000000
X_167_13                      1.000000
X_168_25                      1.000000
X_169_35                      1.000000
X_170_33                      1.000000
X_171_1                       1.000000
X_172_41                      1.000000
X_173_50                      1.000000
X_174_40                      1.000000
X_175_7                       1.000000
X_176_30                      1.000000
X_177_49                      1.000000
X_178_11                      1.000000
X_179_18                      1.000000
X_180_36                      1.000000
X_181_34                      1.000000
X_182_2                       1.000000
X_183_47                      1.000000
X_184_32                      1.000000
X_185_7                       1.000000
X_186_33                      1.000000
X_187_47                      1.000000
X_188_32                      1.000000
X_189_45                      1.000000
X_190_10                      1.000000
X_191_46                      1.000000
X_192_47                      1.000000
X_193_19                      1.000000
X_194_22                      1.000000
X_195_8                       1.000000
X_196_43                      1.000000
X_197_6                       1.000000
X_198_9                       1.000000
X_199_9                       1.000000
X_200_24                      1.000000
All other variables in the range 1-10001 are 0.
